p wcnf 194 291 292 
1 79 106 0 
1 147 123 0 
1 156 -148 0 
1 107 145 0 
1 180 41 0 
1 133 -145 0 
1 76 59 0 
1 -93 -31 0 
1 173 -188 0 
1 186 -22 0 
1 -38 -135 0 
1 7 47 0 
1 182 136 0 
1 -34 -7 0 
1 29 -180 0 
1 153 -33 0 
1 50 -144 0 
1 -66 110 0 
1 -175 -174 0 
1 98 31 0 
1 45 165 0 
1 169 153 0 
1 184 166 0 
1 91 -34 0 
1 9 162 0 
1 -39 -177 0 
1 -175 -7 0 
1 101 -184 0 
1 95 -134 0 
1 112 -30 0 
1 -161 12 0 
1 81 -162 0 
1 171 -27 0 
1 174 89 0 
1 84 -101 0 
1 -172 174 0 
1 4 82 0 
1 -55 -114 0 
1 -151 138 0 
1 -169 143 0 
1 58 92 0 
1 -75 -10 0 
1 162 143 0 
1 -88 55 0 
1 117 83 0 
1 -71 -123 0 
1 72 26 0 
1 138 -184 0 
1 78 -2 0 
1 -1 -69 0 
1 -152 192 0 
1 -97 194 0 
1 -180 55 0 
1 -90 -118 0 
1 -158 -19 0 
1 -94 -84 0 
1 -68 101 0 
1 108 28 0 
1 155 168 0 
1 -109 97 0 
1 50 -80 0 
1 -179 -39 0 
1 -70 47 0 
1 110 -28 0 
1 -25 -160 0 
1 -78 -40 0 
1 33 -68 0 
1 141 -4 0 
1 123 107 0 
1 46 168 0 
1 -51 52 0 
1 166 34 0 
1 -189 104 0 
1 -65 13 0 
1 -71 118 0 
1 -17 96 0 
1 126 -173 0 
1 -5 -36 0 
1 -180 6 0 
1 21 32 0 
1 -110 39 0 
1 70 -174 0 
1 -178 -15 0 
1 -90 57 0 
1 -33 184 0 
1 -125 -64 0 
1 134 156 0 
1 98 6 0 
1 163 128 0 
1 131 189 0 
1 -188 -165 0 
1 -84 41 0 
1 83 3 0 
1 -23 47 0 
1 -77 -112 0 
1 -157 52 0 
1 194 33 0 
1 128 -132 0 
1 -88 4 0 
1 181 -21 0 
1 -41 -152 0 
1 -45 -53 0 
1 -127 -4 0 
1 -189 108 0 
1 -23 175 0 
1 155 -43 0 
1 -183 -192 0 
1 109 -142 0 
1 -30 153 0 
1 34 -3 0 
1 -23 -139 0 
1 159 -26 0 
1 3 89 0 
1 -65 161 0 
1 144 -57 0 
1 -182 94 0 
1 -89 144 0 
1 -182 -169 0 
1 81 137 0 
1 179 78 0 
1 -96 -127 0 
1 46 -59 0 
1 -177 -165 0 
1 -179 -11 0 
1 102 -58 0 
1 140 -38 0 
1 -155 -178 0 
1 -171 -139 0 
1 -62 -117 0 
1 11 -109 0 
1 189 -157 0 
1 131 -26 0 
1 -86 -20 0 
1 78 13 0 
1 -129 172 0 
1 72 7 0 
1 8 165 0 
1 9 -187 0 
1 -6 46 0 
1 -3 -171 0 
1 -5 81 0 
1 15 -51 0 
1 -105 -174 0 
1 55 -150 0 
1 47 -117 0 
1 61 -70 0 
1 141 -3 0 
1 -183 -28 0 
1 -19 -113 0 
1 -144 -11 0 
1 -42 132 0 
1 -26 -142 0 
1 -174 82 0 
1 -15 -92 0 
1 -181 -35 0 
1 -131 -68 0 
1 -79 9 0 
1 18 94 0 
1 80 166 0 
1 32 11 0 
1 -69 18 0 
1 164 146 0 
1 -17 -21 0 
1 171 -113 0 
1 149 -40 0 
1 82 -44 0 
1 -129 -30 0 
1 88 149 0 
1 107 166 0 
1 -111 27 0 
1 -161 121 0 
1 -82 178 0 
1 71 122 0 
1 -82 126 0 
1 177 32 0 
1 -139 182 0 
1 54 176 0 
1 65 79 0 
1 160 132 0 
1 -9 -162 0 
1 -124 27 0 
1 78 67 0 
1 182 137 0 
1 125 26 0 
1 45 -127 0 
1 155 -29 0 
1 -183 -156 0 
1 2 155 0 
1 181 -30 0 
1 -150 -36 0 
1 11 125 0 
1 -125 163 0 
1 160 -45 0 
1 -102 -179 0 
1 -168 99 0 
1 174 135 0 
1 76 -118 0 
1 -118 -160 0 
1 192 -48 0 
1 165 -52 0 
1 103 -147 0 
1 -48 7 0 
1 90 175 0 
1 150 -71 0 
1 -67 44 0 
1 2 158 0 
1 108 96 0 
1 183 66 0 
1 -34 -79 0 
1 52 88 0 
1 -112 192 0 
1 -62 -2 0 
1 53 -82 0 
1 -18 115 0 
1 -32 9 0 
1 -169 -173 0 
1 65 -159 0 
1 166 -143 0 
1 -28 -152 0 
1 151 96 0 
1 -50 -171 0 
1 26 -91 0 
1 -53 189 0 
1 139 -156 0 
1 -41 167 0 
1 -21 57 0 
1 67 128 0 
1 -33 -122 0 
1 -177 -91 0 
1 186 86 0 
1 -92 -147 0 
1 -33 84 0 
1 165 -8 0 
1 -70 -66 0 
1 160 23 0 
1 -131 -8 0 
1 167 -5 0 
1 95 -193 0 
1 16 -125 0 
1 -191 80 0 
1 -47 -60 0 
1 27 21 0 
1 8 -190 0 
1 -81 173 0 
1 -136 81 0 
1 -23 11 0 
1 136 75 0 
1 129 148 0 
1 -43 -161 0 
1 67 130 0 
1 -106 91 0 
1 183 88 0 
1 98 -41 0 
1 -99 190 0 
1 15 -105 0 
1 92 -67 0 
1 131 -174 0 
1 154 84 0 
1 44 -99 0 
1 71 131 0 
1 161 -65 0 
1 -34 69 0 
1 -119 60 0 
1 -16 174 0 
1 89 -58 0 
1 -14 -21 0 
1 -111 -148 0 
1 -4 58 0 
1 -143 -114 0 
1 142 -150 0 
1 -143 -124 0 
1 -36 102 0 
1 90 -189 0 
1 110 176 0 
1 133 81 0 
1 89 -33 0 
1 -16 -7 0 
1 112 59 0 
1 70 56 0 
1 -161 -76 0 
1 155 4 0 
1 -102 -46 0 
1 -33 -47 0 
1 39 132 0 
1 -27 -73 0 
1 -66 151 0 
1 -182 60 0 
1 168 -3 0 
1 37 101 0 
1 -18 120 0 
1 -45 -78 0 
